(set-logic QF_S)
(declare-fun var0 () String)
(declare-fun var1 () String)
(declare-fun var2 () String)
(declare-fun var3 () String)
(declare-fun var4 () String)
(declare-fun var5 () String)
(declare-fun var6 () String)
(declare-fun var7 () String)
(declare-fun var8 () String)
(declare-fun var9 () String)
(declare-fun var10 () String)
(declare-fun var11 () String)
(declare-fun var12 () String)
(declare-fun var13 () String)
(declare-fun var14 () String)
(declare-fun var15 () String)
(declare-fun var16 () String)
(declare-fun var17 () String)
(declare-fun var18 () String)
(declare-fun var19 () String)
(declare-fun var20 () String)
(declare-fun var21 () String)
(declare-fun var22 () String)
(declare-fun var23 () String)
(declare-fun var24 () String)
(declare-fun var25 () String)
(declare-fun var26 () String)
(declare-fun var27 () String)
(declare-fun var28 () String)
(declare-fun var29 () String)
(declare-fun var30 () String)
(declare-fun var31 () String)
(declare-fun var32 () String)
(declare-fun var33 () String)
(declare-fun var34 () String)
(declare-fun var35 () String)
(declare-fun var36 () String)
(declare-fun var37 () String)
(declare-fun var38 () String)
(declare-fun var39 () String)
(declare-fun var40 () String)
(declare-fun var41 () String)
(declare-fun var42 () String)
(declare-fun var43 () String)
(declare-fun var44 () String)
(declare-fun var45 () String)
(declare-fun var46 () String)
(declare-fun var47 () String)
(declare-fun var48 () String)
(declare-fun var49 () String)
(declare-fun var50 () String)
(declare-fun var51 () String)
(declare-fun var52 () String)
(declare-fun var53 () String)
(declare-fun var54 () String)
(declare-fun var55 () String)
(declare-fun var56 () String)
(declare-fun var57 () String)
(declare-fun var58 () String)
(declare-fun var59 () String)
(declare-fun var60 () String)
(assert (= var0 (Concat var1 var2)))
(assert (= var2 (Concat var3 var4)))
(assert (= var4 (Concat var5 var6)))
(assert (= var6 (Concat var7 var8)))
(assert (= var8 (Concat var9 var10)))
(assert (= var10 (Concat var11 var12)))
(assert (= var12 (Concat var13 var14)))
(assert (= var14 (Concat var15 var16)))
(assert (= var16 (Concat var17 var18)))
(assert (= var18 (Concat var19 var20)))
(assert (= var20 (Concat var21 var22)))
(assert (= var22 (Concat var23 var24)))
(assert (= var24 (Concat var25 var26)))
(assert (= var26 (Concat var27 var28)))
(assert (= var28 (Concat var29 var30)))
(assert (= var30 (Concat var31 var32)))
(assert (= var32 (Concat var33 var34)))
(assert (= var34 (Concat var35 var36)))
(assert (= var36 (Concat var37 var38)))
(assert (= var38 (Concat var39 var40)))
(assert (= var40 (Concat var41 var42)))
(assert (= var42 (Concat var43 var44)))
(assert (= var44 (Concat var45 var46)))
(assert (= var46 (Concat var47 var48)))
(assert (= var48 (Concat var49 var50)))
(assert (= var50 (Concat var51 var52)))
(assert (= var52 (Concat var53 var54)))
(assert (= var54 (Concat var55 var56)))
(assert (= var56 (Concat var57 var58)))
(assert (= var58 (Concat var59 var60)))
(assert (= var0 "solution"))
(assert (= "H" (CharAt var36 11)))
(assert (= "$" (CharAt var49 59)))
(assert (= "0" (CharAt var50 207)))
(assert (= "q" (CharAt var2 184)))
(assert (= "_" (CharAt var20 275)))
(assert (= "a" (CharAt var36 925)))
(assert (= "*" (CharAt var31 450)))
(assert (= "g" (CharAt var44 331)))
(assert (= "t" (CharAt var26 541)))
(assert (= "2" (CharAt var19 32)))
(assert (= "l" (CharAt var47 695)))
(assert (= "X" (CharAt var39 837)))
(assert (= "1" (CharAt var25 659)))
(assert (= "P" (CharAt var16 281)))
(assert (= "l" (CharAt var51 988)))
(assert (= "," (CharAt var2 440)))
(assert (= "$" (CharAt var15 718)))
(assert (= "$" (CharAt var16 813)))
(assert (= ";" (CharAt var30 982)))
(assert (= "F" (CharAt var31 89)))
(assert (= "$" (CharAt var41 830)))
(assert (= "/" (CharAt var55 648)))
(assert (= "p" (CharAt var54 175)))
(assert (= "x" (CharAt var31 635)))
(assert (= "S" (CharAt var11 221)))
(assert (= "c" (CharAt var57 452)))
(assert (= "e" (CharAt var5 991)))
(assert (= "w" (CharAt var10 985)))
(assert (= "{" (CharAt var22 321)))
(assert (= "*" (CharAt var15 614)))
(assert (= "+" (CharAt var10 400)))
(assert (= "5" (CharAt var16 650)))
(assert (= "2" (CharAt var19 208)))
(assert (= "U" (CharAt var3 114)))
(assert (= ":" (CharAt var30 637)))
(assert (= "?" (CharAt var20 647)))
(assert (= "#" (CharAt var15 187)))
(assert (= "Y" (CharAt var0 929)))
(assert (= "i" (CharAt var47 370)))
(assert (= "r" (CharAt var34 873)))
(assert (= "3" (CharAt var17 522)))
(assert (= "B" (CharAt var38 427)))
(assert (= "9" (CharAt var42 662)))
(assert (= "1" (CharAt var45 543)))
(assert (= "!" (CharAt var48 622)))
(assert (= ";" (CharAt var32 694)))
(assert (= "p" (CharAt var0 347)))
(assert (= "i" (CharAt var0 997)))
(assert (= "`" (CharAt var35 81)))
(assert (= "]" (CharAt var20 42)))
(assert (= "=" (CharAt var53 250)))
(assert (= "n" (CharAt var9 290)))
(assert (= "}" (CharAt var34 961)))
(assert (= "2" (CharAt var23 70)))
(assert (= "^" (CharAt var2 675)))
(assert (= "-" (CharAt var17 859)))
(assert (= "Z" (CharAt var12 504)))
(assert (= "-" (CharAt var33 983)))
(assert (= "Z" (CharAt var10 440)))
(assert (= "k" (CharAt var18 104)))
(assert (= ")" (CharAt var58 134)))
(assert (= "J" (CharAt var34 637)))
(assert (= ":" (CharAt var22 733)))
(assert (= "-" (CharAt var22 36)))
(assert (= "z" (CharAt var46 815)))
(assert (= "{" (CharAt var56 614)))
(assert (= "@" (CharAt var10 364)))
(assert (= "b" (CharAt var16 213)))
(assert (= "@" (CharAt var15 265)))
(assert (= "t" (CharAt var37 970)))
(assert (= "^" (CharAt var57 89)))
(assert (= "q" (CharAt var6 40)))
(assert (= "2" (CharAt var54 158)))
(assert (= "!" (CharAt var7 466)))
(assert (= "V" (CharAt var53 281)))
(assert (= "&" (CharAt var49 28)))
(assert (= ":" (CharAt var19 281)))
(assert (= "n" (CharAt var41 592)))
(assert (= "c" (CharAt var50 851)))
(assert (= "9" (CharAt var16 964)))
(assert (= "?" (CharAt var36 360)))
(assert (= "#" (CharAt var30 311)))
(assert (= "i" (CharAt var56 688)))
(assert (= "\"" (CharAt var52 430)))
(assert (= "G" (CharAt var24 692)))
(assert (= "0" (CharAt var2 467)))
(assert (= "S" (CharAt var1 625)))
(assert (= "Y" (CharAt var4 349)))
(assert (= "8" (CharAt var23 679)))
(assert (= "S" (CharAt var32 500)))
(assert (= "." (CharAt var5 797)))
(assert (= "s" (CharAt var27 550)))
(assert (= "g" (CharAt var24 478)))
(assert (= "8" (CharAt var47 312)))
(assert (= "$" (CharAt var20 487)))
(assert (= "K" (CharAt var21 543)))
(assert (= "\"" (CharAt var38 960)))
(assert (= "N" (CharAt var48 748)))
(assert (= "+" (CharAt var18 967)))
(assert (= "d" (CharAt var40 872)))
(assert (= "D" (CharAt var12 968)))
(assert (= "&" (CharAt var21 936)))
(assert (= "|" (CharAt var43 186)))
(assert (= "p" (CharAt var9 789)))
(assert (= "_" (CharAt var10 587)))
(assert (= "_" (CharAt var37 377)))
(assert (= "S" (CharAt var41 153)))
(assert (= "'" (CharAt var37 972)))
(assert (= "h" (CharAt var52 242)))
(assert (= "F" (CharAt var25 908)))
(assert (= "n" (CharAt var59 49)))
(assert (= ")" (CharAt var1 919)))
(assert (= ")" (CharAt var48 53)))
(assert (= "5" (CharAt var14 903)))
(assert (= "#" (CharAt var57 901)))
(assert (= "p" (CharAt var29 310)))
(assert (= "I" (CharAt var9 286)))
(assert (= "6" (CharAt var3 441)))
(assert (= "M" (CharAt var20 682)))
(assert (= "c" (CharAt var55 127)))
(assert (= "t" (CharAt var44 867)))
(assert (= "A" (CharAt var54 834)))
(assert (= "M" (CharAt var4 103)))
(assert (= ")" (CharAt var30 878)))
(assert (= "c" (CharAt var41 350)))
(assert (= "m" (CharAt var44 370)))
(assert (= "b" (CharAt var32 228)))
(assert (= "9" (CharAt var33 51)))
(assert (= "*" (CharAt var15 644)))
(assert (= "'" (CharAt var8 401)))
(assert (= "k" (CharAt var18 536)))
(assert (= "6" (CharAt var37 193)))
(assert (= ";" (CharAt var27 169)))
(assert (= "J" (CharAt var28 139)))
(assert (= "k" (CharAt var40 442)))
(assert (= ">" (CharAt var50 682)))
(assert (= "5" (CharAt var51 855)))
(assert (= "V" (CharAt var42 396)))
(assert (= "V" (CharAt var54 21)))
(assert (= "1" (CharAt var40 677)))
(assert (= "j" (CharAt var45 968)))
(assert (= "_" (CharAt var13 855)))
(assert (= "l" (CharAt var11 748)))
(assert (= "4" (CharAt var10 123)))
(assert (= "," (CharAt var38 687)))
(assert (= "k" (CharAt var16 625)))
(assert (= "e" (CharAt var51 269)))
(assert (= "'" (CharAt var39 765)))
(assert (= "J" (CharAt var20 606)))
(assert (= "G" (CharAt var33 148)))
(assert (= "!" (CharAt var26 968)))
(assert (= "." (CharAt var52 580)))
(assert (= "2" (CharAt var17 967)))
(assert (= "|" (CharAt var28 870)))
(assert (= "h" (CharAt var41 149)))
(assert (= "X" (CharAt var12 589)))
(assert (= "'" (CharAt var44 728)))
(assert (= "U" (CharAt var30 911)))
(assert (= "D" (CharAt var48 613)))
(assert (= "3" (CharAt var2 269)))
(assert (= "'" (CharAt var46 308)))
(assert (= "S" (CharAt var60 381)))
(assert (= "u" (CharAt var23 765)))
(assert (= "R" (CharAt var40 371)))
(assert (= "&" (CharAt var1 543)))
(assert (= "i" (CharAt var18 292)))
(assert (= "Y" (CharAt var3 138)))
(assert (= "]" (CharAt var30 775)))
(assert (= "W" (CharAt var13 169)))
(assert (= "i" (CharAt var26 584)))
(assert (= "E" (CharAt var60 670)))
(assert (= "/" (CharAt var19 226)))
(assert (= "{" (CharAt var14 891)))
(assert (= "(" (CharAt var56 204)))
(assert (= "'" (CharAt var46 400)))
(assert (= "/" (CharAt var11 236)))
(assert (= "+" (CharAt var15 292)))
(assert (= "C" (CharAt var0 725)))
(assert (= "@" (CharAt var23 592)))
(assert (= "7" (CharAt var36 60)))
(assert (= "l" (CharAt var60 267)))
(assert (= "1" (CharAt var11 203)))
(assert (= "B" (CharAt var4 572)))
(assert (= "(" (CharAt var52 690)))
(assert (= "I" (CharAt var28 282)))
(assert (= "X" (CharAt var41 526)))
(assert (= "i" (CharAt var3 863)))
(assert (= "l" (CharAt var26 367)))
(assert (= "T" (CharAt var40 372)))
(assert (= "@" (CharAt var42 844)))
(assert (= "&" (CharAt var1 877)))
(assert (= "k" (CharAt var57 19)))
(assert (= "[" (CharAt var33 924)))
(assert (= "<" (CharAt var42 302)))
(assert (= "X" (CharAt var25 840)))
(assert (= "-" (CharAt var48 595)))
(assert (= "f" (CharAt var32 276)))
(assert (= "'" (CharAt var0 66)))
(assert (= "!" (CharAt var54 629)))
(assert (= "d" (CharAt var59 45)))
(assert (= "Y" (CharAt var30 218)))
(assert (= "k" (CharAt var57 773)))
(assert (= "g" (CharAt var46 748)))
(assert (= "1" (CharAt var45 378)))
(assert (= "I" (CharAt var59 262)))
(assert (= "d" (CharAt var35 669)))
(assert (= "N" (CharAt var33 730)))
(assert (= "*" (CharAt var32 218)))
(assert (= "&" (CharAt var1 986)))
(assert (= "m" (CharAt var38 721)))
(assert (= "<" (CharAt var19 836)))
(assert (= "+" (CharAt var59 358)))
(assert (= "*" (CharAt var52 298)))
(assert (= "#" (CharAt var25 85)))
(assert (= "S" (CharAt var50 51)))
(assert (= "W" (CharAt var5 792)))
(assert (= "w" (CharAt var30 95)))
(assert (= "z" (CharAt var17 467)))
(assert (= "r" (CharAt var29 139)))
(assert (= "k" (CharAt var15 351)))
(assert (= "P" (CharAt var16 580)))
(assert (= "`" (CharAt var14 389)))
(assert (= "T" (CharAt var8 390)))
(assert (= "N" (CharAt var23 243)))
(assert (= "L" (CharAt var41 730)))
(assert (= "N" (CharAt var24 103)))
(assert (= "z" (CharAt var28 359)))
(assert (= "O" (CharAt var14 841)))
(assert (= "K" (CharAt var59 799)))
(assert (= "x" (CharAt var34 66)))
(assert (= "l" (CharAt var16 142)))
(assert (= "Y" (CharAt var28 102)))
(assert (= "l" (CharAt var2 237)))
(assert (= "y" (CharAt var7 418)))
(assert (= "0" (CharAt var13 746)))
(assert (= "1" (CharAt var39 170)))
(assert (= "!" (CharAt var4 292)))
(assert (= "Q" (CharAt var7 533)))
(assert (= "O" (CharAt var52 923)))
(assert (= "(" (CharAt var46 697)))
(assert (= "U" (CharAt var6 398)))
(assert (= "j" (CharAt var13 651)))
(assert (= "R" (CharAt var0 553)))
(assert (= "g" (CharAt var46 345)))
(assert (= "_" (CharAt var57 926)))
(assert (= "R" (CharAt var11 338)))
(assert (= "1" (CharAt var34 810)))
(assert (= "Z" (CharAt var50 62)))
(assert (= "7" (CharAt var54 447)))
(assert (= "8" (CharAt var9 44)))
(assert (= "(" (CharAt var11 685)))
(assert (= "c" (CharAt var1 775)))
(assert (= "G" (CharAt var17 407)))
(assert (= "H" (CharAt var10 106)))
(assert (= "k" (CharAt var57 292)))
(assert (= "B" (CharAt var14 858)))
(assert (= "b" (CharAt var39 302)))
(assert (= "B" (CharAt var40 582)))
(assert (= "f" (CharAt var48 553)))
(assert (= "*" (CharAt var40 354)))
(assert (= "x" (CharAt var52 59)))
(assert (= "h" (CharAt var56 276)))
(assert (= "j" (CharAt var6 289)))
(assert (= "6" (CharAt var7 19)))
(assert (= "9" (CharAt var26 739)))
(assert (= "4" (CharAt var38 470)))
(assert (= "l" (CharAt var25 566)))
(assert (= ">" (CharAt var31 12)))
(assert (= "D" (CharAt var3 506)))
(assert (= "L" (CharAt var11 260)))
(assert (= "4" (CharAt var58 655)))
(assert (= "[" (CharAt var17 410)))
(assert (= "[" (CharAt var6 281)))
(assert (= "." (CharAt var7 308)))
(assert (= "Z" (CharAt var26 46)))
(assert (= "L" (CharAt var24 367)))
(assert (= "Q" (CharAt var52 647)))
(assert (= "o" (CharAt var47 147)))
(assert (= "_" (CharAt var24 447)))
(assert (= "K" (CharAt var49 688)))
(assert (= "J" (CharAt var44 420)))
(assert (= "4" (CharAt var41 518)))
(assert (= "V" (CharAt var44 219)))
(assert (= "V" (CharAt var41 937)))
(assert (= "N" (CharAt var35 500)))
(assert (= "y" (CharAt var41 1000)))
(assert (= "G" (CharAt var7 833)))
(assert (= "b" (CharAt var39 352)))
(assert (= "r" (CharAt var0 709)))
(assert (= "_" (CharAt var6 363)))
(assert (= "?" (CharAt var37 557)))
(assert (= "9" (CharAt var53 750)))
(assert (= "L" (CharAt var51 278)))
(assert (= "M" (CharAt var10 606)))
(assert (= "B" (CharAt var38 79)))
(assert (= "R" (CharAt var20 166)))
(assert (= "?" (CharAt var40 527)))
(assert (= "X" (CharAt var39 249)))
(assert (= "4" (CharAt var43 629)))
(assert (= "b" (CharAt var21 382)))
(assert (= "O" (CharAt var21 540)))
(assert (= "S" (CharAt var37 101)))
(assert (= "T" (CharAt var0 677)))
(assert (= "X" (CharAt var59 739)))
(assert (= "F" (CharAt var49 521)))
(assert (= "<" (CharAt var17 657)))
(assert (= "W" (CharAt var3 98)))
(assert (= "-" (CharAt var15 439)))
(assert (= "/" (CharAt var51 615)))
(assert (= "(" (CharAt var45 261)))
(assert (= "}" (CharAt var7 987)))
(assert (= "v" (CharAt var2 417)))
(assert (= "3" (CharAt var36 399)))
(assert (= "7" (CharAt var0 785)))
(assert (= "2" (CharAt var58 891)))
(assert (= "R" (CharAt var28 939)))
(assert (= "\"" (CharAt var41 346)))
(assert (= "!" (CharAt var39 346)))
(assert (= "q" (CharAt var26 515)))
(assert (= "p" (CharAt var24 445)))
(assert (= "L" (CharAt var0 117)))
(assert (= "O" (CharAt var1 210)))
(assert (= "m" (CharAt var0 97)))
(assert (= "x" (CharAt var53 991)))
(assert (= "!" (CharAt var38 437)))
(assert (= "x" (CharAt var33 123)))
(assert (= "W" (CharAt var23 519)))
(assert (= "i" (CharAt var37 3)))
(assert (= ")" (CharAt var17 73)))
(assert (= "&" (CharAt var5 682)))
(assert (= "B" (CharAt var59 762)))
(assert (= "4" (CharAt var44 51)))
(assert (= "N" (CharAt var47 90)))
(assert (= "7" (CharAt var45 32)))
(assert (= "O" (CharAt var41 767)))
(assert (= "h" (CharAt var52 181)))
(assert (= "U" (CharAt var49 262)))
(assert (= "~" (CharAt var12 454)))
(assert (= "_" (CharAt var15 255)))
(assert (= "g" (CharAt var60 540)))
(assert (= "c" (CharAt var47 773)))
(assert (= "*" (CharAt var25 969)))
(assert (= "t" (CharAt var60 772)))
(assert (= "M" (CharAt var1 122)))
(assert (= "h" (CharAt var38 750)))
(assert (= "6" (CharAt var17 633)))
(assert (= "w" (CharAt var34 117)))
(assert (= "=" (CharAt var44 194)))
(assert (= "q" (CharAt var14 643)))
(assert (= "o" (CharAt var33 177)))
(assert (= "1" (CharAt var26 590)))
(assert (= "E" (CharAt var25 174)))
(assert (= "`" (CharAt var5 629)))
(assert (= "6" (CharAt var30 760)))
(assert (= "$" (CharAt var59 194)))
(assert (= "k" (CharAt var32 416)))
(assert (= "%" (CharAt var27 683)))
(assert (= ">" (CharAt var11 836)))
(assert (= "|" (CharAt var29 805)))
(assert (= "!" (CharAt var56 422)))
(assert (= "5" (CharAt var60 62)))
(assert (= "Z" (CharAt var25 506)))
(assert (= "y" (CharAt var14 395)))
(assert (= "!" (CharAt var50 511)))
(assert (= "x" (CharAt var46 283)))
(assert (= "?" (CharAt var40 908)))
(assert (= "m" (CharAt var8 888)))
(assert (= "`" (CharAt var37 292)))
(assert (= "~" (CharAt var53 86)))
(assert (= "7" (CharAt var43 326)))
(assert (= "z" (CharAt var7 759)))
(assert (= "U" (CharAt var34 815)))
(assert (= "z" (CharAt var30 19)))
(assert (= "_" (CharAt var26 544)))
(assert (= "k" (CharAt var22 887)))
(assert (= "p" (CharAt var14 915)))
(assert (= ";" (CharAt var7 865)))
(assert (= "m" (CharAt var56 164)))
(assert (= "~" (CharAt var52 167)))
(assert (= "<" (CharAt var23 379)))
(assert (= "4" (CharAt var15 993)))
(assert (= "D" (CharAt var10 369)))
(assert (= "q" (CharAt var36 40)))
(assert (= "k" (CharAt var18 39)))
(assert (= "^" (CharAt var15 591)))
(assert (= "u" (CharAt var5 745)))
(assert (= "g" (CharAt var41 390)))
(assert (= "E" (CharAt var45 180)))
(assert (= "Q" (CharAt var9 536)))
(assert (= "6" (CharAt var12 917)))
(assert (= "U" (CharAt var37 465)))
(assert (= "/" (CharAt var45 130)))
(assert (= "8" (CharAt var60 380)))
(assert (= "<" (CharAt var34 847)))
(assert (= "y" (CharAt var15 506)))
(assert (= "P" (CharAt var48 507)))
(assert (= "a" (CharAt var18 614)))
(assert (= "I" (CharAt var25 52)))
(assert (= ")" (CharAt var35 12)))
(assert (= "t" (CharAt var53 559)))
(assert (= "S" (CharAt var43 156)))
(check-sat)